2	25
720	837	942	277	726	42	32	134	785	309	660	547	889	861	732	689	711	896	42	834	93	22	711	441	780	
330	359	196	978	873	94	489	899	800	190	864	961	469	739	694	466	199	767	227	994	667	506	629	123	396	
3478	3478	
